\ Model master model
\ LP format - for model browsing. Use MPS format to capture full model detail.
Minimize
  0.5 L
Subject To
 epigraph[0]: 2605 x[0,1] + 4272 x[0,2] + 9360 x[0,3] + 569 x[0,4]
   + 4998 x[0,5] + 8833 x[0,6] + 3790 x[0,7] + 5382 x[0,8] + 8483 x[0,9]
   + 8524 x[0,10] + 8753 x[0,11] + 2943 x[0,12] + 6400 x[0,13]
   + 2634 x[0,14] + 8554 x[0,15] + 229 x[0,16] + 7020 x[0,17]
   + 8404 x[0,18] + 4859 x[0,19] - L <= 0
 epigraph[1]: 8520 x[1,0] + 2398 x[1,2] + 5254 x[1,3] + 5293 x[1,4]
   + 8757 x[1,5] + 4364 x[1,6] + 4320 x[1,7] + 8489 x[1,8] + 9267 x[1,9]
   + 1138 x[1,10] + 6809 x[1,11] + 8989 x[1,12] + 3377 x[1,13]
   + 3698 x[1,14] + 6562 x[1,15] + 6471 x[1,16] + 8601 x[1,17]
   + 7366 x[1,18] + 5916 x[1,19] - L <= 0
 epigraph[2]: 9793 x[2,0] + 8110 x[2,1] + 5512 x[2,3] + 3784 x[2,4]
   + 4818 x[2,5] + 7532 x[2,6] + 6942 x[2,7] + 8100 x[2,8] + 4537 x[2,9]
   + 5726 x[2,10] + 4489 x[2,11] + 382 x[2,12] + 6399 x[2,13]
   + 8153 x[2,14] + 6193 x[2,15] + 4602 x[2,16] + 5079 x[2,17]
   + 8840 x[2,18] + 7674 x[2,19] - L <= 0
 epigraph[3]: 7663 x[3,0] + 9745 x[3,1] + 5129 x[3,2] + 3529 x[3,4]
   + 6016 x[3,5] + 8010 x[3,6] + 3586 x[3,7] + 8174 x[3,8] + 6794 x[3,9]
   + 6197 x[3,10] + 4556 x[3,11] + 9282 x[3,12] + 6998 x[3,13]
   + 9583 x[3,14] + 9031 x[3,15] + 5075 x[3,16] + 9079 x[3,17]
   + 8823 x[3,18] + 7769 x[3,19] - L <= 0
 epigraph[4]: 7869 x[4,0] + 3430 x[4,1] + 1604 x[4,2] + 9578 x[4,3]
   + 9104 x[4,5] + 4799 x[4,6] + 5116 x[4,7] + 6923 x[4,8] + 1024 x[4,9]
   + 9681 x[4,10] + 613 x[4,11] + 8571 x[4,12] + 847 x[4,13] + 5438 x[4,14]
   + 985 x[4,15] + 2245 x[4,16] + 1359 x[4,17] + 3462 x[4,18] + 482 x[4,19]
   - L <= 0
 epigraph[5]: 6652 x[5,0] + 3715 x[5,1] + 3614 x[5,2] + 4560 x[5,3]
   + 9775 x[5,4] + 8194 x[5,6] + 6028 x[5,7] + 3435 x[5,8] + 9048 x[5,9]
   + 4517 x[5,10] + 1307 x[5,11] + 7203 x[5,12] + 7591 x[5,13]
   + 7494 x[5,14] + 7440 x[5,15] + 4474 x[5,16] + 8999 x[5,17]
   + 8039 x[5,18] + 1694 x[5,19] - L <= 0
 epigraph[6]: 5422 x[6,0] + 6080 x[6,1] + 9154 x[6,2] + 7390 x[6,3]
   + 8054 x[6,4] + 6304 x[6,5] + 7026 x[6,7] + 5900 x[6,8] + 5402 x[6,9]
   + 8603 x[6,10] + 1748 x[6,11] + 1418 x[6,12] + 5966 x[6,13]
   + 8906 x[6,14] + 4456 x[6,15] + 6232 x[6,16] + 6718 x[6,17]
   + 2224 x[6,18] + 2423 x[6,19] - L <= 0
 epigraph[7]: 3837 x[7,0] + 5525 x[7,1] + 6883 x[7,2] + 5385 x[7,3]
   + 2289 x[7,4] + 9453 x[7,5] + 7380 x[7,6] + 2291 x[7,8] + 1044 x[7,9]
   + 1385 x[7,10] + 567 x[7,11] + 9973 x[7,12] + 6362 x[7,13]
   + 6057 x[7,14] + 4641 x[7,15] + 649 x[7,16] + 4486 x[7,17]
   + 4483 x[7,18] + 8536 x[7,19] - L <= 0
 epigraph[8]: 984 x[8,0] + 8066 x[8,1] + 8989 x[8,2] + 1331 x[8,3]
   + 9318 x[8,4] + 3978 x[8,5] + 6771 x[8,6] + 5761 x[8,7] + 5101 x[8,9]
   + 4167 x[8,10] + 4572 x[8,11] + 2416 x[8,12] + 8216 x[8,13]
   + 1009 x[8,14] + 3258 x[8,15] + 9129 x[8,16] + 3995 x[8,17]
   + 6192 x[8,18] + 3506 x[8,19] - L <= 0
 epigraph[9]: 5872 x[9,0] + 9582 x[9,1] + 1405 x[9,2] + 9191 x[9,3]
   + 173 x[9,4] + 8548 x[9,5] + 2047 x[9,6] + 1485 x[9,7] + 1345 x[9,8]
   + 9188 x[9,10] + 9067 x[9,11] + 1807 x[9,12] + 1934 x[9,13]
   + 253 x[9,14] + 1521 x[9,15] + 3538 x[9,16] + 6135 x[9,17]
   + 4064 x[9,18] + 3885 x[9,19] - L <= 0
 epigraph[10]: 5453 x[10,0] + 863 x[10,1] + 664 x[10,2] + 6586 x[10,3]
   + 9156 x[10,4] + 8837 x[10,5] + 4464 x[10,6] + 1697 x[10,7]
   + 2090 x[10,8] + 8995 x[10,9] + 5853 x[10,11] + 6192 x[10,12]
   + 4212 x[10,13] + 4733 x[10,14] + 7760 x[10,15] + 9654 x[10,16]
   + 8593 x[10,17] + 7528 x[10,18] + 8957 x[10,19] - L <= 0
 epigraph[11]: 3723 x[11,0] + 265 x[11,1] + 9652 x[11,2] + 6629 x[11,3]
   + 3742 x[11,4] + 6351 x[11,5] + 8976 x[11,6] + 7770 x[11,7]
   + 2829 x[11,8] + 446 x[11,9] + 9741 x[11,10] + 6248 x[11,12]
   + 2479 x[11,13] + 9905 x[11,14] + 3861 x[11,15] + 6551 x[11,16]
   + 1376 x[11,17] + 8642 x[11,18] + 2696 x[11,19] - L <= 0
 epigraph[12]: 2289 x[12,0] + 3362 x[12,1] + 2516 x[12,2] + 1664 x[12,3]
   + 9525 x[12,4] + 3300 x[12,5] + 7627 x[12,6] + 5402 x[12,7]
   + 6829 x[12,8] + 9217 x[12,9] + 1578 x[12,10] + 7405 x[12,11]
   + 5641 x[12,13] + 5726 x[12,14] + 7122 x[12,15] + 9231 x[12,16]
   + 3952 x[12,17] + 7219 x[12,18] + 3241 x[12,19] - L <= 0
 epigraph[13]: 7747 x[13,0] + 8754 x[13,1] + 2624 x[13,2] + 2633 x[13,3]
   + 6065 x[13,4] + 6948 x[13,5] + 4873 x[13,6] + 2924 x[13,7]
   + 6781 x[13,8] + 8645 x[13,9] + 3848 x[13,10] + 8024 x[13,11]
   + 7802 x[13,12] + 3600 x[13,14] + 5366 x[13,15] + 4803 x[13,16]
   + 1563 x[13,17] + 2959 x[13,18] + 705 x[13,19] - L <= 0
 epigraph[14]: 6429 x[14,0] + 6278 x[14,1] + 1318 x[14,2] + 8506 x[14,3]
   + 9700 x[14,4] + 4532 x[14,5] + 6930 x[14,6] + 7913 x[14,7]
   + 575 x[14,8] + 1934 x[14,9] + 8248 x[14,10] + 3518 x[14,11]
   + 1966 x[14,12] + 3111 x[14,13] + 151 x[14,15] + 9820 x[14,16]
   + 5070 x[14,17] + 5234 x[14,18] + 7678 x[14,19] - L <= 0
 epigraph[15]: 7534 x[15,0] + 1289 x[15,1] + 6777 x[15,2] + 6726 x[15,3]
   + 232 x[15,4] + 2125 x[15,5] + 6318 x[15,6] + 8194 x[15,7]
   + 4171 x[15,8] + 6042 x[15,9] + 1708 x[15,10] + 4035 x[15,11]
   + 3606 x[15,12] + 5491 x[15,13] + 4701 x[15,14] + 7277 x[15,16]
   + 6773 x[15,17] + 246 x[15,18] + 7223 x[15,19] - L <= 0
 epigraph[16]: 4325 x[16,0] + 889 x[16,1] + 5476 x[16,2] + 7819 x[16,3]
   + 1697 x[16,4] + 1462 x[16,5] + 7031 x[16,6] + 630 x[16,7]
   + 3067 x[16,8] + 1371 x[16,9] + 4802 x[16,10] + 6394 x[16,11]
   + 5100 x[16,12] + 1769 x[16,13] + 4120 x[16,14] + 9893 x[16,15]
   + 7934 x[16,17] + 7689 x[16,18] + 9586 x[16,19] - L <= 0
 epigraph[17]: 3235 x[17,0] + 4343 x[17,1] + 380 x[17,2] + 3741 x[17,3]
   + 5950 x[17,4] + 5535 x[17,5] + 9489 x[17,6] + 2102 x[17,7]
   + 8907 x[17,8] + 9053 x[17,9] + 4907 x[17,10] + 2289 x[17,11]
   + 2161 x[17,12] + 9289 x[17,13] + 2677 x[17,14] + 8058 x[17,15]
   + 3083 x[17,16] + 6323 x[17,18] + 1438 x[17,19] - L <= 0
 epigraph[18]: 4485 x[18,0] + 1773 x[18,1] + 8864 x[18,2] + 9249 x[18,3]
   + 2159 x[18,4] + 3466 x[18,5] + 8928 x[18,6] + 6225 x[18,7]
   + 5260 x[18,8] + 1555 x[18,9] + 1717 x[18,10] + 4145 x[18,11]
   + 9327 x[18,12] + 8810 x[18,13] + 5242 x[18,14] + 1538 x[18,15]
   + 360 x[18,16] + 6183 x[18,17] + 4240 x[18,19] - L <= 0
 epigraph[19]: 5901 x[19,0] + 3453 x[19,1] + 5312 x[19,2] + 6338 x[19,3]
   + 8499 x[19,4] + 2681 x[19,5] + 4786 x[19,6] + 358 x[19,7]
   + 6387 x[19,8] + 9191 x[19,9] + 9985 x[19,10] + 10059 x[19,11]
   + 6085 x[19,12] + 3944 x[19,13] + 3241 x[19,14] + 10056 x[19,15]
   + 1538 x[19,16] + 1012 x[19,17] + 2386 x[19,18] - L <= 0
 p: y[0] + y[1] + y[2] + y[3] + y[4] + y[5] + y[6] + y[7] + y[8] + y[9]
   + y[10] + y[11] + y[12] + y[13] + y[14] + y[15] + y[16] + y[17] + y[18]
   + y[19] = 7
 x<y[0,0]: x[0,0] - y[0] <= 0
 x<y[0,1]: x[0,1] - y[1] <= 0
 x<y[0,2]: x[0,2] - y[2] <= 0
 x<y[0,3]: x[0,3] - y[3] <= 0
 x<y[0,4]: x[0,4] - y[4] <= 0
 x<y[0,5]: x[0,5] - y[5] <= 0
 x<y[0,6]: x[0,6] - y[6] <= 0
 x<y[0,7]: x[0,7] - y[7] <= 0
 x<y[0,8]: x[0,8] - y[8] <= 0
 x<y[0,9]: x[0,9] - y[9] <= 0
 x<y[0,10]: x[0,10] - y[10] <= 0
 x<y[0,11]: x[0,11] - y[11] <= 0
 x<y[0,12]: x[0,12] - y[12] <= 0
 x<y[0,13]: x[0,13] - y[13] <= 0
 x<y[0,14]: x[0,14] - y[14] <= 0
 x<y[0,15]: x[0,15] - y[15] <= 0
 x<y[0,16]: x[0,16] - y[16] <= 0
 x<y[0,17]: x[0,17] - y[17] <= 0
 x<y[0,18]: x[0,18] - y[18] <= 0
 x<y[0,19]: x[0,19] - y[19] <= 0
 x<y[1,0]: x[1,0] - y[0] <= 0
 x<y[1,1]: x[1,1] - y[1] <= 0
 x<y[1,2]: x[1,2] - y[2] <= 0
 x<y[1,3]: x[1,3] - y[3] <= 0
 x<y[1,4]: x[1,4] - y[4] <= 0
 x<y[1,5]: x[1,5] - y[5] <= 0
 x<y[1,6]: x[1,6] - y[6] <= 0
 x<y[1,7]: x[1,7] - y[7] <= 0
 x<y[1,8]: x[1,8] - y[8] <= 0
 x<y[1,9]: x[1,9] - y[9] <= 0
 x<y[1,10]: x[1,10] - y[10] <= 0
 x<y[1,11]: x[1,11] - y[11] <= 0
 x<y[1,12]: x[1,12] - y[12] <= 0
 x<y[1,13]: x[1,13] - y[13] <= 0
 x<y[1,14]: x[1,14] - y[14] <= 0
 x<y[1,15]: x[1,15] - y[15] <= 0
 x<y[1,16]: x[1,16] - y[16] <= 0
 x<y[1,17]: x[1,17] - y[17] <= 0
 x<y[1,18]: x[1,18] - y[18] <= 0
 x<y[1,19]: x[1,19] - y[19] <= 0
 x<y[2,0]: x[2,0] - y[0] <= 0
 x<y[2,1]: x[2,1] - y[1] <= 0
 x<y[2,2]: x[2,2] - y[2] <= 0
 x<y[2,3]: x[2,3] - y[3] <= 0
 x<y[2,4]: x[2,4] - y[4] <= 0
 x<y[2,5]: x[2,5] - y[5] <= 0
 x<y[2,6]: x[2,6] - y[6] <= 0
 x<y[2,7]: x[2,7] - y[7] <= 0
 x<y[2,8]: x[2,8] - y[8] <= 0
 x<y[2,9]: x[2,9] - y[9] <= 0
 x<y[2,10]: x[2,10] - y[10] <= 0
 x<y[2,11]: x[2,11] - y[11] <= 0
 x<y[2,12]: x[2,12] - y[12] <= 0
 x<y[2,13]: x[2,13] - y[13] <= 0
 x<y[2,14]: x[2,14] - y[14] <= 0
 x<y[2,15]: x[2,15] - y[15] <= 0
 x<y[2,16]: x[2,16] - y[16] <= 0
 x<y[2,17]: x[2,17] - y[17] <= 0
 x<y[2,18]: x[2,18] - y[18] <= 0
 x<y[2,19]: x[2,19] - y[19] <= 0
 x<y[3,0]: x[3,0] - y[0] <= 0
 x<y[3,1]: x[3,1] - y[1] <= 0
 x<y[3,2]: x[3,2] - y[2] <= 0
 x<y[3,3]: x[3,3] - y[3] <= 0
 x<y[3,4]: x[3,4] - y[4] <= 0
 x<y[3,5]: x[3,5] - y[5] <= 0
 x<y[3,6]: x[3,6] - y[6] <= 0
 x<y[3,7]: x[3,7] - y[7] <= 0
 x<y[3,8]: x[3,8] - y[8] <= 0
 x<y[3,9]: x[3,9] - y[9] <= 0
 x<y[3,10]: x[3,10] - y[10] <= 0
 x<y[3,11]: x[3,11] - y[11] <= 0
 x<y[3,12]: x[3,12] - y[12] <= 0
 x<y[3,13]: x[3,13] - y[13] <= 0
 x<y[3,14]: x[3,14] - y[14] <= 0
 x<y[3,15]: x[3,15] - y[15] <= 0
 x<y[3,16]: x[3,16] - y[16] <= 0
 x<y[3,17]: x[3,17] - y[17] <= 0
 x<y[3,18]: x[3,18] - y[18] <= 0
 x<y[3,19]: x[3,19] - y[19] <= 0
 x<y[4,0]: x[4,0] - y[0] <= 0
 x<y[4,1]: x[4,1] - y[1] <= 0
 x<y[4,2]: x[4,2] - y[2] <= 0
 x<y[4,3]: x[4,3] - y[3] <= 0
 x<y[4,4]: x[4,4] - y[4] <= 0
 x<y[4,5]: x[4,5] - y[5] <= 0
 x<y[4,6]: x[4,6] - y[6] <= 0
 x<y[4,7]: x[4,7] - y[7] <= 0
 x<y[4,8]: x[4,8] - y[8] <= 0
 x<y[4,9]: x[4,9] - y[9] <= 0
 x<y[4,10]: x[4,10] - y[10] <= 0
 x<y[4,11]: x[4,11] - y[11] <= 0
 x<y[4,12]: x[4,12] - y[12] <= 0
 x<y[4,13]: x[4,13] - y[13] <= 0
 x<y[4,14]: x[4,14] - y[14] <= 0
 x<y[4,15]: x[4,15] - y[15] <= 0
 x<y[4,16]: x[4,16] - y[16] <= 0
 x<y[4,17]: x[4,17] - y[17] <= 0
 x<y[4,18]: x[4,18] - y[18] <= 0
 x<y[4,19]: x[4,19] - y[19] <= 0
 x<y[5,0]: x[5,0] - y[0] <= 0
 x<y[5,1]: x[5,1] - y[1] <= 0
 x<y[5,2]: x[5,2] - y[2] <= 0
 x<y[5,3]: x[5,3] - y[3] <= 0
 x<y[5,4]: x[5,4] - y[4] <= 0
 x<y[5,5]: x[5,5] - y[5] <= 0
 x<y[5,6]: x[5,6] - y[6] <= 0
 x<y[5,7]: x[5,7] - y[7] <= 0
 x<y[5,8]: x[5,8] - y[8] <= 0
 x<y[5,9]: x[5,9] - y[9] <= 0
 x<y[5,10]: x[5,10] - y[10] <= 0
 x<y[5,11]: x[5,11] - y[11] <= 0
 x<y[5,12]: x[5,12] - y[12] <= 0
 x<y[5,13]: x[5,13] - y[13] <= 0
 x<y[5,14]: x[5,14] - y[14] <= 0
 x<y[5,15]: x[5,15] - y[15] <= 0
 x<y[5,16]: x[5,16] - y[16] <= 0
 x<y[5,17]: x[5,17] - y[17] <= 0
 x<y[5,18]: x[5,18] - y[18] <= 0
 x<y[5,19]: x[5,19] - y[19] <= 0
 x<y[6,0]: x[6,0] - y[0] <= 0
 x<y[6,1]: x[6,1] - y[1] <= 0
 x<y[6,2]: x[6,2] - y[2] <= 0
 x<y[6,3]: x[6,3] - y[3] <= 0
 x<y[6,4]: x[6,4] - y[4] <= 0
 x<y[6,5]: x[6,5] - y[5] <= 0
 x<y[6,6]: x[6,6] - y[6] <= 0
 x<y[6,7]: x[6,7] - y[7] <= 0
 x<y[6,8]: x[6,8] - y[8] <= 0
 x<y[6,9]: x[6,9] - y[9] <= 0
 x<y[6,10]: x[6,10] - y[10] <= 0
 x<y[6,11]: x[6,11] - y[11] <= 0
 x<y[6,12]: x[6,12] - y[12] <= 0
 x<y[6,13]: x[6,13] - y[13] <= 0
 x<y[6,14]: x[6,14] - y[14] <= 0
 x<y[6,15]: x[6,15] - y[15] <= 0
 x<y[6,16]: x[6,16] - y[16] <= 0
 x<y[6,17]: x[6,17] - y[17] <= 0
 x<y[6,18]: x[6,18] - y[18] <= 0
 x<y[6,19]: x[6,19] - y[19] <= 0
 x<y[7,0]: x[7,0] - y[0] <= 0
 x<y[7,1]: x[7,1] - y[1] <= 0
 x<y[7,2]: x[7,2] - y[2] <= 0
 x<y[7,3]: x[7,3] - y[3] <= 0
 x<y[7,4]: x[7,4] - y[4] <= 0
 x<y[7,5]: x[7,5] - y[5] <= 0
 x<y[7,6]: x[7,6] - y[6] <= 0
 x<y[7,7]: x[7,7] - y[7] <= 0
 x<y[7,8]: x[7,8] - y[8] <= 0
 x<y[7,9]: x[7,9] - y[9] <= 0
 x<y[7,10]: x[7,10] - y[10] <= 0
 x<y[7,11]: x[7,11] - y[11] <= 0
 x<y[7,12]: x[7,12] - y[12] <= 0
 x<y[7,13]: x[7,13] - y[13] <= 0
 x<y[7,14]: x[7,14] - y[14] <= 0
 x<y[7,15]: x[7,15] - y[15] <= 0
 x<y[7,16]: x[7,16] - y[16] <= 0
 x<y[7,17]: x[7,17] - y[17] <= 0
 x<y[7,18]: x[7,18] - y[18] <= 0
 x<y[7,19]: x[7,19] - y[19] <= 0
 x<y[8,0]: x[8,0] - y[0] <= 0
 x<y[8,1]: x[8,1] - y[1] <= 0
 x<y[8,2]: x[8,2] - y[2] <= 0
 x<y[8,3]: x[8,3] - y[3] <= 0
 x<y[8,4]: x[8,4] - y[4] <= 0
 x<y[8,5]: x[8,5] - y[5] <= 0
 x<y[8,6]: x[8,6] - y[6] <= 0
 x<y[8,7]: x[8,7] - y[7] <= 0
 x<y[8,8]: x[8,8] - y[8] <= 0
 x<y[8,9]: x[8,9] - y[9] <= 0
 x<y[8,10]: x[8,10] - y[10] <= 0
 x<y[8,11]: x[8,11] - y[11] <= 0
 x<y[8,12]: x[8,12] - y[12] <= 0
 x<y[8,13]: x[8,13] - y[13] <= 0
 x<y[8,14]: x[8,14] - y[14] <= 0
 x<y[8,15]: x[8,15] - y[15] <= 0
 x<y[8,16]: x[8,16] - y[16] <= 0
 x<y[8,17]: x[8,17] - y[17] <= 0
 x<y[8,18]: x[8,18] - y[18] <= 0
 x<y[8,19]: x[8,19] - y[19] <= 0
 x<y[9,0]: x[9,0] - y[0] <= 0
 x<y[9,1]: x[9,1] - y[1] <= 0
 x<y[9,2]: x[9,2] - y[2] <= 0
 x<y[9,3]: x[9,3] - y[3] <= 0
 x<y[9,4]: x[9,4] - y[4] <= 0
 x<y[9,5]: x[9,5] - y[5] <= 0
 x<y[9,6]: x[9,6] - y[6] <= 0
 x<y[9,7]: x[9,7] - y[7] <= 0
 x<y[9,8]: x[9,8] - y[8] <= 0
 x<y[9,9]: x[9,9] - y[9] <= 0
 x<y[9,10]: x[9,10] - y[10] <= 0
 x<y[9,11]: x[9,11] - y[11] <= 0
 x<y[9,12]: x[9,12] - y[12] <= 0
 x<y[9,13]: x[9,13] - y[13] <= 0
 x<y[9,14]: x[9,14] - y[14] <= 0
 x<y[9,15]: x[9,15] - y[15] <= 0
 x<y[9,16]: x[9,16] - y[16] <= 0
 x<y[9,17]: x[9,17] - y[17] <= 0
 x<y[9,18]: x[9,18] - y[18] <= 0
 x<y[9,19]: x[9,19] - y[19] <= 0
 x<y[10,0]: x[10,0] - y[0] <= 0
 x<y[10,1]: x[10,1] - y[1] <= 0
 x<y[10,2]: x[10,2] - y[2] <= 0
 x<y[10,3]: x[10,3] - y[3] <= 0
 x<y[10,4]: x[10,4] - y[4] <= 0
 x<y[10,5]: x[10,5] - y[5] <= 0
 x<y[10,6]: x[10,6] - y[6] <= 0
 x<y[10,7]: x[10,7] - y[7] <= 0
 x<y[10,8]: x[10,8] - y[8] <= 0
 x<y[10,9]: x[10,9] - y[9] <= 0
 x<y[10,10]: x[10,10] - y[10] <= 0
 x<y[10,11]: x[10,11] - y[11] <= 0
 x<y[10,12]: x[10,12] - y[12] <= 0
 x<y[10,13]: x[10,13] - y[13] <= 0
 x<y[10,14]: x[10,14] - y[14] <= 0
 x<y[10,15]: x[10,15] - y[15] <= 0
 x<y[10,16]: x[10,16] - y[16] <= 0
 x<y[10,17]: x[10,17] - y[17] <= 0
 x<y[10,18]: x[10,18] - y[18] <= 0
 x<y[10,19]: x[10,19] - y[19] <= 0
 x<y[11,0]: x[11,0] - y[0] <= 0
 x<y[11,1]: x[11,1] - y[1] <= 0
 x<y[11,2]: x[11,2] - y[2] <= 0
 x<y[11,3]: x[11,3] - y[3] <= 0
 x<y[11,4]: x[11,4] - y[4] <= 0
 x<y[11,5]: x[11,5] - y[5] <= 0
 x<y[11,6]: x[11,6] - y[6] <= 0
 x<y[11,7]: x[11,7] - y[7] <= 0
 x<y[11,8]: x[11,8] - y[8] <= 0
 x<y[11,9]: x[11,9] - y[9] <= 0
 x<y[11,10]: x[11,10] - y[10] <= 0
 x<y[11,11]: x[11,11] - y[11] <= 0
 x<y[11,12]: x[11,12] - y[12] <= 0
 x<y[11,13]: x[11,13] - y[13] <= 0
 x<y[11,14]: x[11,14] - y[14] <= 0
 x<y[11,15]: x[11,15] - y[15] <= 0
 x<y[11,16]: x[11,16] - y[16] <= 0
 x<y[11,17]: x[11,17] - y[17] <= 0
 x<y[11,18]: x[11,18] - y[18] <= 0
 x<y[11,19]: x[11,19] - y[19] <= 0
 x<y[12,0]: x[12,0] - y[0] <= 0
 x<y[12,1]: x[12,1] - y[1] <= 0
 x<y[12,2]: x[12,2] - y[2] <= 0
 x<y[12,3]: x[12,3] - y[3] <= 0
 x<y[12,4]: x[12,4] - y[4] <= 0
 x<y[12,5]: x[12,5] - y[5] <= 0
 x<y[12,6]: x[12,6] - y[6] <= 0
 x<y[12,7]: x[12,7] - y[7] <= 0
 x<y[12,8]: x[12,8] - y[8] <= 0
 x<y[12,9]: x[12,9] - y[9] <= 0
 x<y[12,10]: x[12,10] - y[10] <= 0
 x<y[12,11]: x[12,11] - y[11] <= 0
 x<y[12,12]: x[12,12] - y[12] <= 0
 x<y[12,13]: x[12,13] - y[13] <= 0
 x<y[12,14]: x[12,14] - y[14] <= 0
 x<y[12,15]: x[12,15] - y[15] <= 0
 x<y[12,16]: x[12,16] - y[16] <= 0
 x<y[12,17]: x[12,17] - y[17] <= 0
 x<y[12,18]: x[12,18] - y[18] <= 0
 x<y[12,19]: x[12,19] - y[19] <= 0
 x<y[13,0]: x[13,0] - y[0] <= 0
 x<y[13,1]: x[13,1] - y[1] <= 0
 x<y[13,2]: x[13,2] - y[2] <= 0
 x<y[13,3]: x[13,3] - y[3] <= 0
 x<y[13,4]: x[13,4] - y[4] <= 0
 x<y[13,5]: x[13,5] - y[5] <= 0
 x<y[13,6]: x[13,6] - y[6] <= 0
 x<y[13,7]: x[13,7] - y[7] <= 0
 x<y[13,8]: x[13,8] - y[8] <= 0
 x<y[13,9]: x[13,9] - y[9] <= 0
 x<y[13,10]: x[13,10] - y[10] <= 0
 x<y[13,11]: x[13,11] - y[11] <= 0
 x<y[13,12]: x[13,12] - y[12] <= 0
 x<y[13,13]: x[13,13] - y[13] <= 0
 x<y[13,14]: x[13,14] - y[14] <= 0
 x<y[13,15]: x[13,15] - y[15] <= 0
 x<y[13,16]: x[13,16] - y[16] <= 0
 x<y[13,17]: x[13,17] - y[17] <= 0
 x<y[13,18]: x[13,18] - y[18] <= 0
 x<y[13,19]: x[13,19] - y[19] <= 0
 x<y[14,0]: x[14,0] - y[0] <= 0
 x<y[14,1]: x[14,1] - y[1] <= 0
 x<y[14,2]: x[14,2] - y[2] <= 0
 x<y[14,3]: x[14,3] - y[3] <= 0
 x<y[14,4]: x[14,4] - y[4] <= 0
 x<y[14,5]: x[14,5] - y[5] <= 0
 x<y[14,6]: x[14,6] - y[6] <= 0
 x<y[14,7]: x[14,7] - y[7] <= 0
 x<y[14,8]: x[14,8] - y[8] <= 0
 x<y[14,9]: x[14,9] - y[9] <= 0
 x<y[14,10]: x[14,10] - y[10] <= 0
 x<y[14,11]: x[14,11] - y[11] <= 0
 x<y[14,12]: x[14,12] - y[12] <= 0
 x<y[14,13]: x[14,13] - y[13] <= 0
 x<y[14,14]: x[14,14] - y[14] <= 0
 x<y[14,15]: x[14,15] - y[15] <= 0
 x<y[14,16]: x[14,16] - y[16] <= 0
 x<y[14,17]: x[14,17] - y[17] <= 0
 x<y[14,18]: x[14,18] - y[18] <= 0
 x<y[14,19]: x[14,19] - y[19] <= 0
 x<y[15,0]: x[15,0] - y[0] <= 0
 x<y[15,1]: x[15,1] - y[1] <= 0
 x<y[15,2]: x[15,2] - y[2] <= 0
 x<y[15,3]: x[15,3] - y[3] <= 0
 x<y[15,4]: x[15,4] - y[4] <= 0
 x<y[15,5]: x[15,5] - y[5] <= 0
 x<y[15,6]: x[15,6] - y[6] <= 0
 x<y[15,7]: x[15,7] - y[7] <= 0
 x<y[15,8]: x[15,8] - y[8] <= 0
 x<y[15,9]: x[15,9] - y[9] <= 0
 x<y[15,10]: x[15,10] - y[10] <= 0
 x<y[15,11]: x[15,11] - y[11] <= 0
 x<y[15,12]: x[15,12] - y[12] <= 0
 x<y[15,13]: x[15,13] - y[13] <= 0
 x<y[15,14]: x[15,14] - y[14] <= 0
 x<y[15,15]: x[15,15] - y[15] <= 0
 x<y[15,16]: x[15,16] - y[16] <= 0
 x<y[15,17]: x[15,17] - y[17] <= 0
 x<y[15,18]: x[15,18] - y[18] <= 0
 x<y[15,19]: x[15,19] - y[19] <= 0
 x<y[16,0]: x[16,0] - y[0] <= 0
 x<y[16,1]: x[16,1] - y[1] <= 0
 x<y[16,2]: x[16,2] - y[2] <= 0
 x<y[16,3]: x[16,3] - y[3] <= 0
 x<y[16,4]: x[16,4] - y[4] <= 0
 x<y[16,5]: x[16,5] - y[5] <= 0
 x<y[16,6]: x[16,6] - y[6] <= 0
 x<y[16,7]: x[16,7] - y[7] <= 0
 x<y[16,8]: x[16,8] - y[8] <= 0
 x<y[16,9]: x[16,9] - y[9] <= 0
 x<y[16,10]: x[16,10] - y[10] <= 0
 x<y[16,11]: x[16,11] - y[11] <= 0
 x<y[16,12]: x[16,12] - y[12] <= 0
 x<y[16,13]: x[16,13] - y[13] <= 0
 x<y[16,14]: x[16,14] - y[14] <= 0
 x<y[16,15]: x[16,15] - y[15] <= 0
 x<y[16,16]: x[16,16] - y[16] <= 0
 x<y[16,17]: x[16,17] - y[17] <= 0
 x<y[16,18]: x[16,18] - y[18] <= 0
 x<y[16,19]: x[16,19] - y[19] <= 0
 x<y[17,0]: x[17,0] - y[0] <= 0
 x<y[17,1]: x[17,1] - y[1] <= 0
 x<y[17,2]: x[17,2] - y[2] <= 0
 x<y[17,3]: x[17,3] - y[3] <= 0
 x<y[17,4]: x[17,4] - y[4] <= 0
 x<y[17,5]: x[17,5] - y[5] <= 0
 x<y[17,6]: x[17,6] - y[6] <= 0
 x<y[17,7]: x[17,7] - y[7] <= 0
 x<y[17,8]: x[17,8] - y[8] <= 0
 x<y[17,9]: x[17,9] - y[9] <= 0
 x<y[17,10]: x[17,10] - y[10] <= 0
 x<y[17,11]: x[17,11] - y[11] <= 0
 x<y[17,12]: x[17,12] - y[12] <= 0
 x<y[17,13]: x[17,13] - y[13] <= 0
 x<y[17,14]: x[17,14] - y[14] <= 0
 x<y[17,15]: x[17,15] - y[15] <= 0
 x<y[17,16]: x[17,16] - y[16] <= 0
 x<y[17,17]: x[17,17] - y[17] <= 0
 x<y[17,18]: x[17,18] - y[18] <= 0
 x<y[17,19]: x[17,19] - y[19] <= 0
 x<y[18,0]: x[18,0] - y[0] <= 0
 x<y[18,1]: x[18,1] - y[1] <= 0
 x<y[18,2]: x[18,2] - y[2] <= 0
 x<y[18,3]: x[18,3] - y[3] <= 0
 x<y[18,4]: x[18,4] - y[4] <= 0
 x<y[18,5]: x[18,5] - y[5] <= 0
 x<y[18,6]: x[18,6] - y[6] <= 0
 x<y[18,7]: x[18,7] - y[7] <= 0
 x<y[18,8]: x[18,8] - y[8] <= 0
 x<y[18,9]: x[18,9] - y[9] <= 0
 x<y[18,10]: x[18,10] - y[10] <= 0
 x<y[18,11]: x[18,11] - y[11] <= 0
 x<y[18,12]: x[18,12] - y[12] <= 0
 x<y[18,13]: x[18,13] - y[13] <= 0
 x<y[18,14]: x[18,14] - y[14] <= 0
 x<y[18,15]: x[18,15] - y[15] <= 0
 x<y[18,16]: x[18,16] - y[16] <= 0
 x<y[18,17]: x[18,17] - y[17] <= 0
 x<y[18,18]: x[18,18] - y[18] <= 0
 x<y[18,19]: x[18,19] - y[19] <= 0
 x<y[19,0]: x[19,0] - y[0] <= 0
 x<y[19,1]: x[19,1] - y[1] <= 0
 x<y[19,2]: x[19,2] - y[2] <= 0
 x<y[19,3]: x[19,3] - y[3] <= 0
 x<y[19,4]: x[19,4] - y[4] <= 0
 x<y[19,5]: x[19,5] - y[5] <= 0
 x<y[19,6]: x[19,6] - y[6] <= 0
 x<y[19,7]: x[19,7] - y[7] <= 0
 x<y[19,8]: x[19,8] - y[8] <= 0
 x<y[19,9]: x[19,9] - y[9] <= 0
 x<y[19,10]: x[19,10] - y[10] <= 0
 x<y[19,11]: x[19,11] - y[11] <= 0
 x<y[19,12]: x[19,12] - y[12] <= 0
 x<y[19,13]: x[19,13] - y[13] <= 0
 x<y[19,14]: x[19,14] - y[14] <= 0
 x<y[19,15]: x[19,15] - y[15] <= 0
 x<y[19,16]: x[19,16] - y[16] <= 0
 x<y[19,17]: x[19,17] - y[17] <= 0
 x<y[19,18]: x[19,18] - y[18] <= 0
 x<y[19,19]: x[19,19] - y[19] <= 0
 sumx[0]: x[0,0] + x[0,1] + x[0,2] + x[0,3] + x[0,4] + x[0,5] + x[0,6]
   + x[0,7] + x[0,8] + x[0,9] + x[0,10] + x[0,11] + x[0,12] + x[0,13]
   + x[0,14] + x[0,15] + x[0,16] + x[0,17] + x[0,18] + x[0,19] = 1
 sumx[1]: x[1,0] + x[1,1] + x[1,2] + x[1,3] + x[1,4] + x[1,5] + x[1,6]
   + x[1,7] + x[1,8] + x[1,9] + x[1,10] + x[1,11] + x[1,12] + x[1,13]
   + x[1,14] + x[1,15] + x[1,16] + x[1,17] + x[1,18] + x[1,19] = 1
 sumx[2]: x[2,0] + x[2,1] + x[2,2] + x[2,3] + x[2,4] + x[2,5] + x[2,6]
   + x[2,7] + x[2,8] + x[2,9] + x[2,10] + x[2,11] + x[2,12] + x[2,13]
   + x[2,14] + x[2,15] + x[2,16] + x[2,17] + x[2,18] + x[2,19] = 1
 sumx[3]: x[3,0] + x[3,1] + x[3,2] + x[3,3] + x[3,4] + x[3,5] + x[3,6]
   + x[3,7] + x[3,8] + x[3,9] + x[3,10] + x[3,11] + x[3,12] + x[3,13]
   + x[3,14] + x[3,15] + x[3,16] + x[3,17] + x[3,18] + x[3,19] = 1
 sumx[4]: x[4,0] + x[4,1] + x[4,2] + x[4,3] + x[4,4] + x[4,5] + x[4,6]
   + x[4,7] + x[4,8] + x[4,9] + x[4,10] + x[4,11] + x[4,12] + x[4,13]
   + x[4,14] + x[4,15] + x[4,16] + x[4,17] + x[4,18] + x[4,19] = 1
 sumx[5]: x[5,0] + x[5,1] + x[5,2] + x[5,3] + x[5,4] + x[5,5] + x[5,6]
   + x[5,7] + x[5,8] + x[5,9] + x[5,10] + x[5,11] + x[5,12] + x[5,13]
   + x[5,14] + x[5,15] + x[5,16] + x[5,17] + x[5,18] + x[5,19] = 1
 sumx[6]: x[6,0] + x[6,1] + x[6,2] + x[6,3] + x[6,4] + x[6,5] + x[6,6]
   + x[6,7] + x[6,8] + x[6,9] + x[6,10] + x[6,11] + x[6,12] + x[6,13]
   + x[6,14] + x[6,15] + x[6,16] + x[6,17] + x[6,18] + x[6,19] = 1
 sumx[7]: x[7,0] + x[7,1] + x[7,2] + x[7,3] + x[7,4] + x[7,5] + x[7,6]
   + x[7,7] + x[7,8] + x[7,9] + x[7,10] + x[7,11] + x[7,12] + x[7,13]
   + x[7,14] + x[7,15] + x[7,16] + x[7,17] + x[7,18] + x[7,19] = 1
 sumx[8]: x[8,0] + x[8,1] + x[8,2] + x[8,3] + x[8,4] + x[8,5] + x[8,6]
   + x[8,7] + x[8,8] + x[8,9] + x[8,10] + x[8,11] + x[8,12] + x[8,13]
   + x[8,14] + x[8,15] + x[8,16] + x[8,17] + x[8,18] + x[8,19] = 1
 sumx[9]: x[9,0] + x[9,1] + x[9,2] + x[9,3] + x[9,4] + x[9,5] + x[9,6]
   + x[9,7] + x[9,8] + x[9,9] + x[9,10] + x[9,11] + x[9,12] + x[9,13]
   + x[9,14] + x[9,15] + x[9,16] + x[9,17] + x[9,18] + x[9,19] = 1
 sumx[10]: x[10,0] + x[10,1] + x[10,2] + x[10,3] + x[10,4] + x[10,5]
   + x[10,6] + x[10,7] + x[10,8] + x[10,9] + x[10,10] + x[10,11] + x[10,12]
   + x[10,13] + x[10,14] + x[10,15] + x[10,16] + x[10,17] + x[10,18]
   + x[10,19] = 1
 sumx[11]: x[11,0] + x[11,1] + x[11,2] + x[11,3] + x[11,4] + x[11,5]
   + x[11,6] + x[11,7] + x[11,8] + x[11,9] + x[11,10] + x[11,11] + x[11,12]
   + x[11,13] + x[11,14] + x[11,15] + x[11,16] + x[11,17] + x[11,18]
   + x[11,19] = 1
 sumx[12]: x[12,0] + x[12,1] + x[12,2] + x[12,3] + x[12,4] + x[12,5]
   + x[12,6] + x[12,7] + x[12,8] + x[12,9] + x[12,10] + x[12,11] + x[12,12]
   + x[12,13] + x[12,14] + x[12,15] + x[12,16] + x[12,17] + x[12,18]
   + x[12,19] = 1
 sumx[13]: x[13,0] + x[13,1] + x[13,2] + x[13,3] + x[13,4] + x[13,5]
   + x[13,6] + x[13,7] + x[13,8] + x[13,9] + x[13,10] + x[13,11] + x[13,12]
   + x[13,13] + x[13,14] + x[13,15] + x[13,16] + x[13,17] + x[13,18]
   + x[13,19] = 1
 sumx[14]: x[14,0] + x[14,1] + x[14,2] + x[14,3] + x[14,4] + x[14,5]
   + x[14,6] + x[14,7] + x[14,8] + x[14,9] + x[14,10] + x[14,11] + x[14,12]
   + x[14,13] + x[14,14] + x[14,15] + x[14,16] + x[14,17] + x[14,18]
   + x[14,19] = 1
 sumx[15]: x[15,0] + x[15,1] + x[15,2] + x[15,3] + x[15,4] + x[15,5]
   + x[15,6] + x[15,7] + x[15,8] + x[15,9] + x[15,10] + x[15,11] + x[15,12]
   + x[15,13] + x[15,14] + x[15,15] + x[15,16] + x[15,17] + x[15,18]
   + x[15,19] = 1
 sumx[16]: x[16,0] + x[16,1] + x[16,2] + x[16,3] + x[16,4] + x[16,5]
   + x[16,6] + x[16,7] + x[16,8] + x[16,9] + x[16,10] + x[16,11] + x[16,12]
   + x[16,13] + x[16,14] + x[16,15] + x[16,16] + x[16,17] + x[16,18]
   + x[16,19] = 1
 sumx[17]: x[17,0] + x[17,1] + x[17,2] + x[17,3] + x[17,4] + x[17,5]
   + x[17,6] + x[17,7] + x[17,8] + x[17,9] + x[17,10] + x[17,11] + x[17,12]
   + x[17,13] + x[17,14] + x[17,15] + x[17,16] + x[17,17] + x[17,18]
   + x[17,19] = 1
 sumx[18]: x[18,0] + x[18,1] + x[18,2] + x[18,3] + x[18,4] + x[18,5]
   + x[18,6] + x[18,7] + x[18,8] + x[18,9] + x[18,10] + x[18,11] + x[18,12]
   + x[18,13] + x[18,14] + x[18,15] + x[18,16] + x[18,17] + x[18,18]
   + x[18,19] = 1
 sumx[19]: x[19,0] + x[19,1] + x[19,2] + x[19,3] + x[19,4] + x[19,5]
   + x[19,6] + x[19,7] + x[19,8] + x[19,9] + x[19,10] + x[19,11] + x[19,12]
   + x[19,13] + x[19,14] + x[19,15] + x[19,16] + x[19,17] + x[19,18]
   + x[19,19] = 1
Bounds
Binaries
 y[0] y[1] y[2] y[3] y[4] y[5] y[6] y[7] y[8] y[9] y[10] y[11] y[12] y[13]
 y[14] y[15] y[16] y[17] y[18] y[19]
End
